Si conventional cell
1.0
5.4300000000 0.0000000000 0.0000000000
0.0000000000 5.4300000000 0.0000000000
0.0000000000 0.0000000000 5.4300000000
Si
2
Direct
0.0000000000 0.0000000000 0.0000000000
0.2500000000 0.2500000000 0.2500000000
